p cnf 0 0
c 1 color par vertex et au plus 1
2 3 0
-3 -2 0
4 5 0
-5 -4 0
c gc coresp to G
-2 -5 6 0
-2 -5 -7 1 0
-2 -5 7 -1 0
-3 -4 6 0
-3 -4 -7 1 0
-3 -4 7 -1 0
c X
-9 2 0
-8 2 0
-9 5 0
-8 5 0
-9 1 0
-8 -1 0
9 -2 -5 -1 0
8 -2 -5 1 0
-11 3 0
-10 3 0
-11 4 0
-10 4 0
-11 1 0
-10 -1 0
11 -3 -4 -1 0
10 -3 -4 1 0
c x suite
-6 -7 9 11 0
-6 7 8 10 0
c proper colo
-2 -4 0
-3 -5 0
6 0
c K couleurs
2 4 0
3 5 0
1 0
-3 0
